V_100_9.txt

VEHICLE     CAPACITY  LOCATIONS  CUSTOMER  OPTIONS  PRIORITIES  NUMTYPS
10		150		97		100		152		3		4

CUSTOMER  DEMAND
0	 18
1	 16
2	 12
3	 18
4	 14
5	 19
6	 17
7	 11
8	 10
9	 14
10	 20
11	 14
12	 17
13	 11
14	 16
15	 15
16	 18
17	 15
18	 17
19	 19
20	 20
21	 14
22	 10
23	 12
24	 12
25	 19
26	 14
27	 11
28	 20
29	 20
30	 15
31	 17
32	 11
33	 20
34	 17
35	 14
36	 10
37	 10
38	 12
39	 18
40	 18
41	 18
42	 12
43	 17
44	 12
45	 15
46	 11
47	 19
48	 16
49	 19
50	 19
51	 14
52	 10
53	 17
54	 11
55	 10
56	 14
57	 13
58	 11
59	 10
60	 18
61	 17
62	 19
63	 12
64	 16
65	 12
66	 12
67	 20
68	 20
69	 11
70	 14
71	 19
72	 19
73	 18
74	 20
75	 16
76	 13
77	 14
78	 10
79	 12
80	 14
81	 10
82	 10
83	 20
84	 11
85	 19
86	 19
87	 19
88	 13
89	 15
90	 11
91	 11
92	 10
93	 10
94	 14
95	 19
96	 19
97	 14
98	 17
99	 16

LOCATION  XCOORD  YCOORD  CAP  READY  DUE  TYP  SERVICETIME
0		34		6		-1		0		720	 0		0
1		39		18		-1		294		354		 2		6
2		41		19		-1		106		166		 2		6
3		27		18		-1		174		234		 2		6
4		27		1		-1		442		502		 2		6
5		44		34		-1		388		448		 2		6
6		41		45		-1		502		562		 2		6
7		18		42		-1		162		222		 2		6
8		19		2		-1		507		567		 2		6
9		7		28		-1		264		324		 2		6
10		9		12		-1		171		231		 2		6
11		45		37		-1		650		710		 2		6
12		46		4		-1		251		311		 2		6
13		5		23		-1		191		251		 2		6
14		1		2		-1		375		435		 2		6
15		6		17		-1		624		684		 2		6
16		36		3		-1		426		486		 2		6
17		38		15		-1		49		109		 2		6
18		28		19		-1		590		650		 2		6
19		39		3		-1		264		324		 2		6
20		26		38		-1		41		101		 2		6
21		2		5		-1		87		147		 2		6
22		12		26		-1		318		378		 2		6
23		27		27		-1		485		545		 2		6
24		43		38		-1		190		250		 2		6
25		1		3		-1		532		592		 2		6
26		33		1		-1		113		173		 2		6
27		49		4		-1		143		203		 2		6
28		43		22		-1		168		228		 2		6
29		10		41		-1		431		491		 2		6
30		39		20		-1		414		474		 2		6
31		41		29		-1		491		551		 2		6
32		20		13		-1		517		577		 2		6
33		28		4		-1		371		431		 2		6
34		15		35		-1		614		674		 2		6
35		33		34		-1		99		159		 2		6
36		9		7		-1		119		179		 2		6
37		35		49		-1		292		352		 2		6
38		31		7		-1		117		177		 2		6
39		11		24		-1		252		312		 2		6
40		35		49		-1		495		555		 2		6
41		46		24		-1		656		716		 2		6
42		22		9		-1		552		612		 2		6
43		31		17		-1		625		685		 2		6
44		31		27		-1		579		639		 2		6
45		22		1		-1		442		502		 2		6
46		29		37		-1		208		268		 2		6
47		1		37		-1		314		374		 2		6
48		48		40		-1		441		501		 2		6
49		35		18		-1		389		449		 2		6
50		15		12		-1		299		359		 2		6
51		9		11		-1		105		165		 2		6
52		47		38		-1		551		611		 2		6
53		25		33		-1		42		102		 2		6
54		27		23		-1		563		623		 2		6
55		7		49		-1		360		420		 2		6
56		24		41		-1		328		388		 2		6
57		23		43		-1		596		656		 2		6
58		3		23		-1		368		428		 2		6
59		29		36		-1		251		311		 2		6
60		4		35		-1		242		302		 2		6
61		18		48		-1		227		287		 2		6
62		21		9		-1		461		521		 2		6
63		38		24		-1		333		393		 2		6
64		10		39		-1		190		250		 2		6
65		42		9		-1		555		615		 2		6
66		20		25		-1		194		254		 2		6
67		5		50		-1		656		716		 2		6
68		25		31		-1		597		657		 2		6
69		5		11		-1		594		654		 2		6
70		36		38		-1		74		134		 2		6
71		4		1		-1		133		193		 2		6
72		42		39		-1		153		213		 2		6
73		1		49		-1		112		172		 2		6
74		7		50		-1		377		437		 2		6
75		20		23		-1		575		635		 2		6
76		20		23		-1		382		442		 2		6
77		23		19		4		390		630		 1		4
78		17		30		3		123		363		 1		4
79		37		24		5		301		541		 1		4
80		32		37		4		166		406		 1		4
81		13		13		4		414		654		 1		4
82		17		22		5		453		693		 1		4
83		38		34		4		84		324		 1		4
84		12		45		5		308		548		 1		4
85		21		22		5		42		282		 1		4
86		21		17		5		319		559		 1		4
87		31		28		4		160		400		 1		4
88		32		33		3		91		331		 1		4
89		35		32		4		136		376		 1		4
90		13		23		5		440		680		 1		4
91		43		21		4		263		503		 1		4
92		13		44		5		319		559		 1		4
93		39		7		3		306		546		 1		4
94		9		31		3		76		316		 1		4
95		24		12		5		45		285		 1		4
96		14		25		3		5		245		 1		4
OPTION  LOCATION  CUSTOMER  PRIO  SERVICETIME   COST
0		92		0		0		2		0
1		92		1		0		2		0
2		93		2		0		2		0
3		90		3		0		2		0
4		92		4		0		2		0
5		90		5		0		2		0
6		78		6		0		2		0
7		85		7		0		2		0
8		88		8		0		2		0
9		77		9		0		2		0
10		79		10		0		2		0
11		84		11		0		2		0
12		80		12		0		2		0
13		77		13		0		2		0
14		90		14		0		2		0
15		87		15		0		2		0
16		78		16		0		2		0
17		79		17		0		2		0
18		87		18		0		2		0
19		94		19		0		2		0
20		86		20		0		2		0
21		90		21		0		2		0
22		77		22		0		2		0
23		89		23		0		2		0
24		1		24		0		5		0
25		2		25		0		5		0
26		3		26		0		5		0
27		4		27		0		5		0
28		5		28		0		5		0
29		6		29		0		5		0
30		7		30		0		5		0
31		8		31		0		5		0
32		9		32		0		5		0
33		10		33		0		5		0
34		11		34		0		5		0
35		12		35		0		5		0
36		13		36		0		5		0
37		14		37		0		5		0
38		15		38		0		5		0
39		16		39		0		5		0
40		17		40		0		5		0
41		18		41		0		5		0
42		19		42		0		5		0
43		20		43		0		5		0
44		21		44		0		5		0
45		22		45		0		5		0
46		23		46		0		5		0
47		24		47		0		5		0
48		25		48		1		5		0
49		95		48		0		2		0
50		26		49		1		5		0
51		95		49		0		2		0
52		27		50		0		5		0
53		95		50		1		2		0
54		28		51		0		5		0
55		83		51		1		2		0
56		29		52		1		5		0
57		94		52		0		2		0
58		30		53		0		5		0
59		86		53		1		2		0
60		31		54		0		5		0
61		88		54		1		2		0
62		32		55		1		5		0
63		85		55		0		2		0
64		33		56		0		5		0
65		86		56		1		2		0
66		34		57		0		5		0
67		92		57		1		2		0
68		35		58		1		5		0
69		90		58		0		2		0
70		36		59		0		5		0
71		86		59		1		2		0
72		37		60		1		5		0
73		87		60		0		2		0
74		38		61		0		5		0
75		86		61		1		2		0
76		39		62		0		5		0
77		82		62		1		2		0
78		40		63		0		5		0
79		80		63		1		2		0
80		41		64		0		5		0
81		91		64		1		2		0
82		42		65		1		5		0
83		86		65		0		2		0
84		43		66		0		5		0
85		86		66		1		2		0
86		44		67		1		5		0
87		83		67		0		2		0
88		45		68		0		5		0
89		90		68		1		2		0
90		46		69		1		5		0
91		84		69		0		2		0
92		47		70		1		5		0
93		78		70		0		2		0
94		48		71		0		5		0
95		79		71		1		2		0
96		49		72		0		5		0
97		82		72		1		2		0
98		50		73		0		5		0
99		82		73		1		2		0
100		51		74		0		5		0
101		90		74		1		2		0
102		52		75		1		5		0
103		88		75		0		2		0
104		53		76		1		5		0
105		89		76		0		2		0
106		54		77		0		5		0
107		87		77		1		2		0
108		55		78		0		5		0
109		78		78		1		2		0
110		56		79		0		5		0
111		92		79		1		2		0
112		57		80		1		5		0
113		84		80		0		2		0
114		58		81		1		5		0
115		94		81		0		2		0
116		59		82		0		5		0
117		88		82		1		2		0
118		60		83		0		5		0
119		84		83		1		2		0
120		61		84		1		5		0
121		84		84		0		2		0
122		62		85		0		5		0
123		77		85		1		2		0
124		63		86		1		5		0
125		91		86		0		2		0
126		64		87		0		5		0
127		94		87		1		2		0
128		65		88		1		5		0
129		94		88		0		2		0
130		66		89		1		5		0
131		78		89		0		2		0
132		67		90		1		5		0
133		78		90		0		2		0
134		68		91		1		5		0
135		88		91		0		2		0
136		69		92		1		5		0
137		81		92		0		2		0
138		70		93		0		5		0
139		87		93		1		2		0
140		71		94		0		5		0
141		77		94		1		2		0
142		72		95		0		5		0
143		87		95		1		2		0
144		73		96		1		5		0
145		94		96		0		2		0
146		74		97		1		5		0
147		77		97		0		2		0
148		75		98		0		5		0
149		77		98		1		2		0
150		76		99		1		5		0
151		84		99		0		2		0
